1186
1   1   0    170  0 38 44 14 100 85 16 61 5 0
1   2   0    186  0 45 48 63 32 64 49 36 47 19 11 46 0
1   3   0    48   0 17 86 83 0
1   4   0    0    0 0
1   5   0    184  0 8 7 31 70 9 34 3 68 29 77 20 30 69 0
2   1   0    166  0 79 81 33 35 71 65 66 90 10 62 0
2   2   0    139  0 54 4 25 55 56 23 67 39 24 0
2   3   0    200  0 72 73 74 22 75 21 40 41 57 2 42 87 43 15 58 12 0
2   4   0    188  0 50 1 91 37 98 59 97 13 94 53 28 76 51 78 0
2   5   0    177  0 95 96 99 84 60 18 82 88 52 89 6 92 93 27 26 80 0